33D32945 STP File, STP Format Version 1.0

SECTION Comment
Name    "cc3-5u"
Creator "stpsolver"
Problem "Prize-Collecting Steiner Problem in Graphs"
END

SECTION Graph
Nodes 125
Edges 750
E 2 1 1
E 3 1 1
E 3 2 1
E 4 1 1
E 4 2 1
E 4 3 1
E 5 1 1
E 5 2 1
E 5 3 1
E 5 4 1
E 6 1 1
E 7 2 1
E 7 6 1
E 8 3 1
E 8 6 1
E 8 7 1
E 9 4 1
E 9 6 1
E 9 7 1
E 9 8 1
E 10 5 1
E 10 6 1
E 10 7 1
E 10 8 1
E 10 9 1
E 11 1 1
E 11 6 1
E 12 2 1
E 12 7 1
E 12 11 1
E 13 3 1
E 13 8 1
E 13 11 1
E 13 12 1
E 14 4 1
E 14 9 1
E 14 11 1
E 14 12 1
E 14 13 1
E 15 5 1
E 15 10 1
E 15 11 1
E 15 12 1
E 15 13 1
E 15 14 1
E 16 1 1
E 16 6 1
E 16 11 1
E 17 2 1
E 17 7 1
E 17 12 1
E 17 16 1
E 18 3 1
E 18 8 1
E 18 13 1
E 18 16 1
E 18 17 1
E 19 4 1
E 19 9 1
E 19 14 1
E 19 16 1
E 19 17 1
E 19 18 1
E 20 5 1
E 20 10 1
E 20 15 1
E 20 16 1
E 20 17 1
E 20 18 1
E 20 19 1
E 21 1 1
E 21 6 1
E 21 11 1
E 21 16 1
E 22 2 1
E 22 7 1
E 22 12 1
E 22 17 1
E 22 21 1
E 23 3 1
E 23 8 1
E 23 13 1
E 23 18 1
E 23 21 1
E 23 22 1
E 24 4 1
E 24 9 1
E 24 14 1
E 24 19 1
E 24 21 1
E 24 22 1
E 24 23 1
E 25 5 1
E 25 10 1
E 25 15 1
E 25 20 1
E 25 21 1
E 25 22 1
E 25 23 1
E 25 24 1
E 26 1 1
E 27 2 1
E 27 26 1
E 28 3 1
E 28 26 1
E 28 27 1
E 29 4 1
E 29 26 1
E 29 27 1
E 29 28 1
E 30 5 1
E 30 26 1
E 30 27 1
E 30 28 1
E 30 29 1
E 31 6 1
E 31 26 1
E 32 7 1
E 32 27 1
E 32 31 1
E 33 8 1
E 33 28 1
E 33 31 1
E 33 32 1
E 34 9 1
E 34 29 1
E 34 31 1
E 34 32 1
E 34 33 1
E 35 10 1
E 35 30 1
E 35 31 1
E 35 32 1
E 35 33 1
E 35 34 1
E 36 11 1
E 36 26 1
E 36 31 1
E 37 12 1
E 37 27 1
E 37 32 1
E 37 36 1
E 38 13 1
E 38 28 1
E 38 33 1
E 38 36 1
E 38 37 1
E 39 14 1
E 39 29 1
E 39 34 1
E 39 36 1
E 39 37 1
E 39 38 1
E 40 15 1
E 40 30 1
E 40 35 1
E 40 36 1
E 40 37 1
E 40 38 1
E 40 39 1
E 41 16 1
E 41 26 1
E 41 31 1
E 41 36 1
E 42 17 1
E 42 27 1
E 42 32 1
E 42 37 1
E 42 41 1
E 43 18 1
E 43 28 1
E 43 33 1
E 43 38 1
E 43 41 1
E 43 42 1
E 44 19 1
E 44 29 1
E 44 34 1
E 44 39 1
E 44 41 1
E 44 42 1
E 44 43 1
E 45 20 1
E 45 30 1
E 45 35 1
E 45 40 1
E 45 41 1
E 45 42 1
E 45 43 1
E 45 44 1
E 46 21 1
E 46 26 1
E 46 31 1
E 46 36 1
E 46 41 1
E 47 22 1
E 47 27 1
E 47 32 1
E 47 37 1
E 47 42 1
E 47 46 1
E 48 23 1
E 48 28 1
E 48 33 1
E 48 38 1
E 48 43 1
E 48 46 1
E 48 47 1
E 49 24 1
E 49 29 1
E 49 34 1
E 49 39 1
E 49 44 1
E 49 46 1
E 49 47 1
E 49 48 1
E 50 25 1
E 50 30 1
E 50 35 1
E 50 40 1
E 50 45 1
E 50 46 1
E 50 47 1
E 50 48 1
E 50 49 1
E 51 1 1
E 51 26 1
E 52 2 1
E 52 27 1
E 52 51 1
E 53 3 1
E 53 28 1
E 53 51 1
E 53 52 1
E 54 4 1
E 54 29 1
E 54 51 1
E 54 52 1
E 54 53 1
E 55 5 1
E 55 30 1
E 55 51 1
E 55 52 1
E 55 53 1
E 55 54 1
E 56 6 1
E 56 31 1
E 56 51 1
E 57 7 1
E 57 32 1
E 57 52 1
E 57 56 1
E 58 8 1
E 58 33 1
E 58 53 1
E 58 56 1
E 58 57 1
E 59 9 1
E 59 34 1
E 59 54 1
E 59 56 1
E 59 57 1
E 59 58 1
E 60 10 1
E 60 35 1
E 60 55 1
E 60 56 1
E 60 57 1
E 60 58 1
E 60 59 1
E 61 11 1
E 61 36 1
E 61 51 1
E 61 56 1
E 62 12 1
E 62 37 1
E 62 52 1
E 62 57 1
E 62 61 1
E 63 13 1
E 63 38 1
E 63 53 1
E 63 58 1
E 63 61 1
E 63 62 1
E 64 14 1
E 64 39 1
E 64 54 1
E 64 59 1
E 64 61 1
E 64 62 1
E 64 63 1
E 65 15 1
E 65 40 1
E 65 55 1
E 65 60 1
E 65 61 1
E 65 62 1
E 65 63 1
E 65 64 1
E 66 16 1
E 66 41 1
E 66 51 1
E 66 56 1
E 66 61 1
E 67 17 1
E 67 42 1
E 67 52 1
E 67 57 1
E 67 62 1
E 67 66 1
E 68 18 1
E 68 43 1
E 68 53 1
E 68 58 1
E 68 63 1
E 68 66 1
E 68 67 1
E 69 19 1
E 69 44 1
E 69 54 1
E 69 59 1
E 69 64 1
E 69 66 1
E 69 67 1
E 69 68 1
E 70 20 1
E 70 45 1
E 70 55 1
E 70 60 1
E 70 65 1
E 70 66 1
E 70 67 1
E 70 68 1
E 70 69 1
E 71 21 1
E 71 46 1
E 71 51 1
E 71 56 1
E 71 61 1
E 71 66 1
E 72 22 1
E 72 47 1
E 72 52 1
E 72 57 1
E 72 62 1
E 72 67 1
E 72 71 1
E 73 23 1
E 73 48 1
E 73 53 1
E 73 58 1
E 73 63 1
E 73 68 1
E 73 71 1
E 73 72 1
E 74 24 1
E 74 49 1
E 74 54 1
E 74 59 1
E 74 64 1
E 74 69 1
E 74 71 1
E 74 72 1
E 74 73 1
E 75 25 1
E 75 50 1
E 75 55 1
E 75 60 1
E 75 65 1
E 75 70 1
E 75 71 1
E 75 72 1
E 75 73 1
E 75 74 1
E 76 1 1
E 76 26 1
E 76 51 1
E 77 2 1
E 77 27 1
E 77 52 1
E 77 76 1
E 78 3 1
E 78 28 1
E 78 53 1
E 78 76 1
E 78 77 1
E 79 4 1
E 79 29 1
E 79 54 1
E 79 76 1
E 79 77 1
E 79 78 1
E 80 5 1
E 80 30 1
E 80 55 1
E 80 76 1
E 80 77 1
E 80 78 1
E 80 79 1
E 81 6 1
E 81 31 1
E 81 56 1
E 81 76 1
E 82 7 1
E 82 32 1
E 82 57 1
E 82 77 1
E 82 81 1
E 83 8 1
E 83 33 1
E 83 58 1
E 83 78 1
E 83 81 1
E 83 82 1
E 84 9 1
E 84 34 1
E 84 59 1
E 84 79 1
E 84 81 1
E 84 82 1
E 84 83 1
E 85 10 1
E 85 35 1
E 85 60 1
E 85 80 1
E 85 81 1
E 85 82 1
E 85 83 1
E 85 84 1
E 86 11 1
E 86 36 1
E 86 61 1
E 86 76 1
E 86 81 1
E 87 12 1
E 87 37 1
E 87 62 1
E 87 77 1
E 87 82 1
E 87 86 1
E 88 13 1
E 88 38 1
E 88 63 1
E 88 78 1
E 88 83 1
E 88 86 1
E 88 87 1
E 89 14 1
E 89 39 1
E 89 64 1
E 89 79 1
E 89 84 1
E 89 86 1
E 89 87 1
E 89 88 1
E 90 15 1
E 90 40 1
E 90 65 1
E 90 80 1
E 90 85 1
E 90 86 1
E 90 87 1
E 90 88 1
E 90 89 1
E 91 16 1
E 91 41 1
E 91 66 1
E 91 76 1
E 91 81 1
E 91 86 1
E 92 17 1
E 92 42 1
E 92 67 1
E 92 77 1
E 92 82 1
E 92 87 1
E 92 91 1
E 93 18 1
E 93 43 1
E 93 68 1
E 93 78 1
E 93 83 1
E 93 88 1
E 93 91 1
E 93 92 1
E 94 19 1
E 94 44 1
E 94 69 1
E 94 79 1
E 94 84 1
E 94 89 1
E 94 91 1
E 94 92 1
E 94 93 1
E 95 20 1
E 95 45 1
E 95 70 1
E 95 80 1
E 95 85 1
E 95 90 1
E 95 91 1
E 95 92 1
E 95 93 1
E 95 94 1
E 96 21 1
E 96 46 1
E 96 71 1
E 96 76 1
E 96 81 1
E 96 86 1
E 96 91 1
E 97 22 1
E 97 47 1
E 97 72 1
E 97 77 1
E 97 82 1
E 97 87 1
E 97 92 1
E 97 96 1
E 98 23 1
E 98 48 1
E 98 73 1
E 98 78 1
E 98 83 1
E 98 88 1
E 98 93 1
E 98 96 1
E 98 97 1
E 99 24 1
E 99 49 1
E 99 74 1
E 99 79 1
E 99 84 1
E 99 89 1
E 99 94 1
E 99 96 1
E 99 97 1
E 99 98 1
E 100 25 1
E 100 50 1
E 100 75 1
E 100 80 1
E 100 85 1
E 100 90 1
E 100 95 1
E 100 96 1
E 100 97 1
E 100 98 1
E 100 99 1
E 101 1 1
E 101 26 1
E 101 51 1
E 101 76 1
E 102 2 1
E 102 27 1
E 102 52 1
E 102 77 1
E 102 101 1
E 103 3 1
E 103 28 1
E 103 53 1
E 103 78 1
E 103 101 1
E 103 102 1
E 104 4 1
E 104 29 1
E 104 54 1
E 104 79 1
E 104 101 1
E 104 102 1
E 104 103 1
E 105 5 1
E 105 30 1
E 105 55 1
E 105 80 1
E 105 101 1
E 105 102 1
E 105 103 1
E 105 104 1
E 106 6 1
E 106 31 1
E 106 56 1
E 106 81 1
E 106 101 1
E 107 7 1
E 107 32 1
E 107 57 1
E 107 82 1
E 107 102 1
E 107 106 1
E 108 8 1
E 108 33 1
E 108 58 1
E 108 83 1
E 108 103 1
E 108 106 1
E 108 107 1
E 109 9 1
E 109 34 1
E 109 59 1
E 109 84 1
E 109 104 1
E 109 106 1
E 109 107 1
E 109 108 1
E 110 10 1
E 110 35 1
E 110 60 1
E 110 85 1
E 110 105 1
E 110 106 1
E 110 107 1
E 110 108 1
E 110 109 1
E 111 11 1
E 111 36 1
E 111 61 1
E 111 86 1
E 111 101 1
E 111 106 1
E 112 12 1
E 112 37 1
E 112 62 1
E 112 87 1
E 112 102 1
E 112 107 1
E 112 111 1
E 113 13 1
E 113 38 1
E 113 63 1
E 113 88 1
E 113 103 1
E 113 108 1
E 113 111 1
E 113 112 1
E 114 14 1
E 114 39 1
E 114 64 1
E 114 89 1
E 114 104 1
E 114 109 1
E 114 111 1
E 114 112 1
E 114 113 1
E 115 15 1
E 115 40 1
E 115 65 1
E 115 90 1
E 115 105 1
E 115 110 1
E 115 111 1
E 115 112 1
E 115 113 1
E 115 114 1
E 116 16 1
E 116 41 1
E 116 66 1
E 116 91 1
E 116 101 1
E 116 106 1
E 116 111 1
E 117 17 1
E 117 42 1
E 117 67 1
E 117 92 1
E 117 102 1
E 117 107 1
E 117 112 1
E 117 116 1
E 118 18 1
E 118 43 1
E 118 68 1
E 118 93 1
E 118 103 1
E 118 108 1
E 118 113 1
E 118 116 1
E 118 117 1
E 119 19 1
E 119 44 1
E 119 69 1
E 119 94 1
E 119 104 1
E 119 109 1
E 119 114 1
E 119 116 1
E 119 117 1
E 119 118 1
E 120 20 1
E 120 45 1
E 120 70 1
E 120 95 1
E 120 105 1
E 120 110 1
E 120 115 1
E 120 116 1
E 120 117 1
E 120 118 1
E 120 119 1
E 121 21 1
E 121 46 1
E 121 71 1
E 121 96 1
E 121 101 1
E 121 106 1
E 121 111 1
E 121 116 1
E 122 22 1
E 122 47 1
E 122 72 1
E 122 97 1
E 122 102 1
E 122 107 1
E 122 112 1
E 122 117 1
E 122 121 1
E 123 23 1
E 123 48 1
E 123 73 1
E 123 98 1
E 123 103 1
E 123 108 1
E 123 113 1
E 123 118 1
E 123 121 1
E 123 122 1
E 124 24 1
E 124 49 1
E 124 74 1
E 124 99 1
E 124 104 1
E 124 109 1
E 124 114 1
E 124 119 1
E 124 121 1
E 124 122 1
E 124 123 1
E 125 25 1
E 125 50 1
E 125 75 1
E 125 100 1
E 125 105 1
E 125 110 1
E 125 115 1
E 125 120 1
E 125 121 1
E 125 122 1
E 125 123 1
E 125 124 1
END

SECTION Terminals
Terminals 13
TP 3 1
TP 12 2
TP 20 2
TP 31 2
TP 49 1
TP 52 2
TP 65 2
TP 68 2
TP 84 1
TP 96 2
TP 105 2
TP 113 1
TP 117 1
END

EOF
